days 2
classrooms 40 32 70
0000 0003
0000 0004
0002
0002
0000 0004
0001 0004
0000 0004
0002
0000 0004
0000 0003
0002
0000 0004
0000 0003
0001 0004
0000 0004
0000 0004
0000 0003
0000 0004
0002
0000 0004
0002
0000 0004
0000 0004
0001 0004
0000 0003
0001 0004
0000 0004
0002
0000 0004
0000 0003
0000 0003
0001 0004
0002
0000 0004
0001 0004
0000 0004
0001 0004
0000 0004
0000 0004
0001 0004
0000 0003
0000 0004
0000 0004
0002
0000 0004
0000 0004
0001 0004
0000 0003
0000 0003
0000 0003
0000 0003
0000 0003
0001 0004
0000 0003
0000 0003
0000 0003
0000 0003
0000 0003
0000 0004
0002
0000 0003
0000 0004
0001 0004
0000 0004
0001 0004
0000 0004
0001 0004
0000 0003
0001 0004
0000 0004
0001 0004
0001 0004
0001 0004
0000 0003
0001 0004
0000 0003
0002
0000 0004
0002
0000 0003
0000 0003
0000 0004
0002
0002
0000 0003
0000 0004
0000 0004
0000 0003
0000 0003
0002
0002
0000 0003
0000 0004
0001 0004
0000 0004
0002
0000 0003
0000 0003
0001 0004
0000 0004
0000 0003
0002
0000 0004
